Route #1: 83 50 35 26 74 87 78 109
Route #2: 56 123 110 54 86 72 3 38
Route #3: 103 10 62 88 37 24 32
Route #4: 124 33 12 106 57 119 85 29
Route #5: 69 1 61 71 49 117 64 48 112
Route #6: 79 36 45 21 46 99 104 111 120
Route #7: 43 77 23 30 68 81 15 63 7 121 5 97 13 96 6 108 90
Route #8: 66 53 8 107 84 70 4 27 22 55 126 28 75 20 67 44 98 65 42 93 94 102
Route #9: 31 92 133 82 80 130 19 17
Route #10: 128 76 115 125 127 114 131 11 122
Route #11: 52 101 89 113 25 105 116 129
Route #12: 34 41 59 18 73 39 2 9
Route #13: 100 60 58 14 47 16 51 91
Route #14: 40 95 118 132
Cost 11810
